38 500
7 118
7 191
9 184
2 146
3 114
7 134
2 172
2 188
7 169
8 167
4 117
7 184
6 149
3 190
6 165
2 134
7 110
2 146
9 134
11 172
10 125
4 191
6 178
11 149
10 169
10 114
9 165
2 167
4 110
9 118
6 190
8 188
7 172
4 134
9 178
6 117
3 125
9 172
